p cnf 120 1630
1 2 3 0
4 5 6 0
7 8 9 0
10 11 12 0
13 14 15 0
16 17 18 0
19 20 21 0
22 23 24 0
25 26 27 0
28 29 30 0
31 32 33 0
34 35 36 0
37 38 39 0
40 41 42 0
43 44 45 0
46 47 48 0
49 50 51 0
52 53 54 0
55 56 57 0
58 59 60 0
61 62 63 0
64 65 66 0
67 68 69 0
70 71 72 0
73 74 75 0
76 77 78 0
79 80 81 0
82 83 84 0
85 86 87 0
88 89 90 0
91 92 93 0
94 95 96 0
97 98 99 0
100 101 102 0
103 104 105 0
106 107 108 0
109 110 111 0
112 113 114 0
115 116 117 0
118 119 120 0
-1 -2 0
-1 -3 0
-2 -3 0
-4 -5 0
-4 -6 0
-5 -6 0
-7 -8 0
-7 -9 0
-8 -9 0
-10 -11 0
-10 -12 0
-11 -12 0
-13 -14 0
-13 -15 0
-14 -15 0
-16 -17 0
-16 -18 0
-17 -18 0
-19 -20 0
-19 -21 0
-20 -21 0
-22 -23 0
-22 -24 0
-23 -24 0
-25 -26 0
-25 -27 0
-26 -27 0
-28 -29 0
-28 -30 0
-29 -30 0
-31 -32 0
-31 -33 0
-32 -33 0
-34 -35 0
-34 -36 0
-35 -36 0
-37 -38 0
-37 -39 0
-38 -39 0
-40 -41 0
-40 -42 0
-41 -42 0
-43 -44 0
-43 -45 0
-44 -45 0
-46 -47 0
-46 -48 0
-47 -48 0
-49 -50 0
-49 -51 0
-50 -51 0
-52 -53 0
-52 -54 0
-53 -54 0
-55 -56 0
-55 -57 0
-56 -57 0
-58 -59 0
-58 -60 0
-59 -60 0
-61 -62 0
-61 -63 0
-62 -63 0
-64 -65 0
-64 -66 0
-65 -66 0
-67 -68 0
-67 -69 0
-68 -69 0
-70 -71 0
-70 -72 0
-71 -72 0
-73 -74 0
-73 -75 0
-74 -75 0
-76 -77 0
-76 -78 0
-77 -78 0
-79 -80 0
-79 -81 0
-80 -81 0
-82 -83 0
-82 -84 0
-83 -84 0
-85 -86 0
-85 -87 0
-86 -87 0
-88 -89 0
-88 -90 0
-89 -90 0
-91 -92 0
-91 -93 0
-92 -93 0
-94 -95 0
-94 -96 0
-95 -96 0
-97 -98 0
-97 -99 0
-98 -99 0
-100 -101 0
-100 -102 0
-101 -102 0
-103 -104 0
-103 -105 0
-104 -105 0
-106 -107 0
-106 -108 0
-107 -108 0
-109 -110 0
-109 -111 0
-110 -111 0
-112 -113 0
-112 -114 0
-113 -114 0
-115 -116 0
-115 -117 0
-116 -117 0
-118 -119 0
-118 -120 0
-119 -120 0
-1 -7 0
-1 -19 0
-1 -25 0
-1 -40 0
-1 -46 0
-1 -55 0
-1 -58 0
-1 -61 0
-1 -85 0
-1 -88 0
-1 -97 0
-1 -112 0
-1 -118 0
-4 -22 0
-4 -25 0
-4 -40 0
-4 -43 0
-4 -52 0
-4 -55 0
-4 -58 0
-4 -61 0
-4 -79 0
-4 -82 0
-4 -85 0
-4 -106 0
-7 -1 0
-7 -22 0
-7 -31 0
-7 -37 0
-7 -43 0
-7 -49 0
-7 -52 0
-7 -55 0
-7 -58 0
-7 -64 0
-7 -70 0
-7 -73 0
-7 -82 0
-7 -118 0
-10 -13 0
-10 -19 0
-10 -25 0
-10 -31 0
-10 -34 0
-10 -37 0
-10 -49 0
-10 -55 0
-10 -67 0
-10 -79 0
-10 -118 0
-13 -10 0
-13 -16 0
-13 -19 0
-13 -34 0
-13 -40 0
-13 -55 0
-13 -73 0
-13 -82 0
-13 -85 0
-13 -94 0
-13 -100 0
-13 -106 0
-13 -112 0
-16 -13 0
-16 -25 0
-16 -28 0
-16 -43 0
-16 -46 0
-16 -61 0
-16 -64 0
-16 -70 0
-16 -76 0
-16 -88 0
-16 -97 0
-19 -1 0
-19 -10 0
-19 -13 0
-19 -25 0
-19 -34 0
-19 -46 0
-19 -52 0
-19 -58 0
-19 -70 0
-19 -85 0
-19 -88 0
-19 -100 0
-22 -4 0
-22 -7 0
-22 -28 0
-22 -37 0
-22 -49 0
-22 -55 0
-22 -70 0
-22 -82 0
-22 -85 0
-22 -88 0
-22 -94 0
-22 -109 0
-22 -112 0
-22 -115 0
-25 -1 0
-25 -4 0
-25 -10 0
-25 -16 0
-25 -19 0
-25 -31 0
-25 -43 0
-25 -46 0
-25 -58 0
-25 -76 0
-25 -79 0
-25 -100 0
-28 -16 0
-28 -22 0
-28 -40 0
-28 -46 0
-28 -49 0
-28 -73 0
-28 -88 0
-28 -109 0
-28 -112 0
-28 -115 0
-28 -118 0
-31 -7 0
-31 -10 0
-31 -25 0
-31 -37 0
-31 -40 0
-31 -52 0
-31 -73 0
-31 -79 0
-31 -85 0
-31 -88 0
-31 -91 0
-31 -106 0
-31 -109 0
-34 -10 0
-34 -13 0
-34 -19 0
-34 -40 0
-34 -52 0
-34 -58 0
-34 -61 0
-34 -70 0
-34 -73 0
-34 -88 0
-34 -97 0
-34 -106 0
-34 -112 0
-37 -7 0
-37 -10 0
-37 -22 0
-37 -31 0
-37 -46 0
-37 -58 0
-37 -64 0
-37 -76 0
-37 -82 0
-37 -85 0
-37 -91 0
-37 -94 0
-37 -112 0
-37 -115 0
-40 -1 0
-40 -4 0
-40 -13 0
-40 -28 0
-40 -31 0
-40 -34 0
-40 -52 0
-40 -61 0
-40 -64 0
-40 -82 0
-40 -88 0
-40 -103 0
-40 -115 0
-43 -4 0
-43 -7 0
-43 -16 0
-43 -25 0
-43 -58 0
-43 -61 0
-43 -64 0
-43 -73 0
-43 -76 0
-43 -100 0
-43 -103 0
-43 -106 0
-43 -109 0
-43 -118 0
-46 -1 0
-46 -16 0
-46 -19 0
-46 -25 0
-46 -28 0
-46 -37 0
-46 -52 0
-46 -55 0
-46 -58 0
-46 -64 0
-46 -82 0
-46 -85 0
-46 -100 0
-49 -7 0
-49 -10 0
-49 -22 0
-49 -28 0
-49 -55 0
-49 -61 0
-49 -67 0
-49 -82 0
-49 -91 0
-49 -94 0
-49 -103 0
-49 -109 0
-52 -4 0
-52 -7 0
-52 -19 0
-52 -31 0
-52 -34 0
-52 -40 0
-52 -46 0
-52 -58 0
-52 -70 0
-52 -79 0
-52 -82 0
-52 -112 0
-52 -115 0
-52 -118 0
-55 -1 0
-55 -4 0
-55 -7 0
-55 -10 0
-55 -13 0
-55 -22 0
-55 -46 0
-55 -49 0
-55 -64 0
-55 -85 0
-55 -88 0
-55 -106 0
-55 -115 0
-58 -1 0
-58 -4 0
-58 -7 0
-58 -19 0
-58 -25 0
-58 -34 0
-58 -37 0
-58 -43 0
-58 -46 0
-58 -52 0
-58 -76 0
-58 -79 0
-58 -88 0
-58 -106 0
-58 -109 0
-61 -1 0
-61 -4 0
-61 -16 0
-61 -34 0
-61 -40 0
-61 -43 0
-61 -49 0
-61 -64 0
-61 -76 0
-61 -91 0
-61 -94 0
-61 -103 0
-64 -7 0
-64 -16 0
-64 -37 0
-64 -40 0
-64 -43 0
-64 -46 0
-64 -55 0
-64 -61 0
-64 -67 0
-64 -73 0
-64 -82 0
-64 -91 0
-64 -103 0
-67 -10 0
-67 -49 0
-67 -64 0
-67 -76 0
-67 -79 0
-67 -82 0
-67 -85 0
-67 -91 0
-67 -100 0
-67 -106 0
-67 -118 0
-70 -7 0
-70 -16 0
-70 -19 0
-70 -22 0
-70 -34 0
-70 -52 0
-70 -76 0
-70 -82 0
-70 -94 0
-70 -100 0
-70 -106 0
-73 -7 0
-73 -13 0
-73 -28 0
-73 -31 0
-73 -34 0
-73 -43 0
-73 -64 0
-73 -76 0
-73 -79 0
-73 -88 0
-73 -91 0
-73 -115 0
-76 -16 0
-76 -25 0
-76 -37 0
-76 -43 0
-76 -58 0
-76 -61 0
-76 -67 0
-76 -70 0
-76 -73 0
-76 -79 0
-76 -88 0
-76 -100 0
-76 -118 0
-79 -4 0
-79 -10 0
-79 -25 0
-79 -31 0
-79 -52 0
-79 -58 0
-79 -67 0
-79 -73 0
-79 -76 0
-79 -94 0
-79 -97 0
-79 -103 0
-79 -112 0
-79 -118 0
-82 -4 0
-82 -7 0
-82 -13 0
-82 -22 0
-82 -37 0
-82 -40 0
-82 -46 0
-82 -49 0
-82 -52 0
-82 -64 0
-82 -67 0
-82 -70 0
-85 -1 0
-85 -4 0
-85 -13 0
-85 -19 0
-85 -22 0
-85 -31 0
-85 -37 0
-85 -46 0
-85 -55 0
-85 -67 0
-88 -1 0
-88 -16 0
-88 -19 0
-88 -22 0
-88 -28 0
-88 -31 0
-88 -34 0
-88 -40 0
-88 -55 0
-88 -58 0
-88 -73 0
-88 -76 0
-88 -91 0
-88 -100 0
-88 -109 0
-91 -31 0
-91 -37 0
-91 -49 0
-91 -61 0
-91 -64 0
-91 -67 0
-91 -73 0
-91 -88 0
-91 -100 0
-91 -115 0
-94 -13 0
-94 -22 0
-94 -37 0
-94 -49 0
-94 -61 0
-94 -70 0
-94 -79 0
-94 -103 0
-94 -106 0
-94 -109 0
-97 -1 0
-97 -16 0
-97 -34 0
-97 -79 0
-97 -100 0
-97 -103 0
-97 -106 0
-97 -112 0
-97 -115 0
-97 -118 0
-100 -13 0
-100 -19 0
-100 -25 0
-100 -43 0
-100 -46 0
-100 -67 0
-100 -70 0
-100 -76 0
-100 -88 0
-100 -91 0
-100 -97 0
-100 -106 0
-100 -115 0
-103 -40 0
-103 -43 0
-103 -49 0
-103 -61 0
-103 -64 0
-103 -79 0
-103 -94 0
-103 -97 0
-103 -109 0
-103 -112 0
-103 -115 0
-106 -4 0
-106 -13 0
-106 -31 0
-106 -34 0
-106 -43 0
-106 -55 0
-106 -58 0
-106 -67 0
-106 -70 0
-106 -94 0
-106 -97 0
-106 -100 0
-109 -22 0
-109 -28 0
-109 -31 0
-109 -43 0
-109 -49 0
-109 -58 0
-109 -88 0
-109 -94 0
-109 -103 0
-109 -112 0
-109 -115 0
-112 -1 0
-112 -13 0
-112 -22 0
-112 -28 0
-112 -34 0
-112 -37 0
-112 -52 0
-112 -79 0
-112 -97 0
-112 -103 0
-112 -109 0
-115 -22 0
-115 -28 0
-115 -37 0
-115 -40 0
-115 -52 0
-115 -55 0
-115 -73 0
-115 -91 0
-115 -97 0
-115 -100 0
-115 -103 0
-115 -109 0
-118 -1 0
-118 -7 0
-118 -10 0
-118 -28 0
-118 -43 0
-118 -52 0
-118 -67 0
-118 -76 0
-118 -79 0
-118 -97 0
-2 -8 0
-2 -20 0
-2 -26 0
-2 -41 0
-2 -47 0
-2 -56 0
-2 -59 0
-2 -62 0
-2 -86 0
-2 -89 0
-2 -98 0
-2 -113 0
-2 -119 0
-5 -23 0
-5 -26 0
-5 -41 0
-5 -44 0
-5 -53 0
-5 -56 0
-5 -59 0
-5 -62 0
-5 -80 0
-5 -83 0
-5 -86 0
-5 -107 0
-8 -2 0
-8 -23 0
-8 -32 0
-8 -38 0
-8 -44 0
-8 -50 0
-8 -53 0
-8 -56 0
-8 -59 0
-8 -65 0
-8 -71 0
-8 -74 0
-8 -83 0
-8 -119 0
-11 -14 0
-11 -20 0
-11 -26 0
-11 -32 0
-11 -35 0
-11 -38 0
-11 -50 0
-11 -56 0
-11 -68 0
-11 -80 0
-11 -119 0
-14 -11 0
-14 -17 0
-14 -20 0
-14 -35 0
-14 -41 0
-14 -56 0
-14 -74 0
-14 -83 0
-14 -86 0
-14 -95 0
-14 -101 0
-14 -107 0
-14 -113 0
-17 -14 0
-17 -26 0
-17 -29 0
-17 -44 0
-17 -47 0
-17 -62 0
-17 -65 0
-17 -71 0
-17 -77 0
-17 -89 0
-17 -98 0
-20 -2 0
-20 -11 0
-20 -14 0
-20 -26 0
-20 -35 0
-20 -47 0
-20 -53 0
-20 -59 0
-20 -71 0
-20 -86 0
-20 -89 0
-20 -101 0
-23 -5 0
-23 -8 0
-23 -29 0
-23 -38 0
-23 -50 0
-23 -56 0
-23 -71 0
-23 -83 0
-23 -86 0
-23 -89 0
-23 -95 0
-23 -110 0
-23 -113 0
-23 -116 0
-26 -2 0
-26 -5 0
-26 -11 0
-26 -17 0
-26 -20 0
-26 -32 0
-26 -44 0
-26 -47 0
-26 -59 0
-26 -77 0
-26 -80 0
-26 -101 0
-29 -17 0
-29 -23 0
-29 -41 0
-29 -47 0
-29 -50 0
-29 -74 0
-29 -89 0
-29 -110 0
-29 -113 0
-29 -116 0
-29 -119 0
-32 -8 0
-32 -11 0
-32 -26 0
-32 -38 0
-32 -41 0
-32 -53 0
-32 -74 0
-32 -80 0
-32 -86 0
-32 -89 0
-32 -92 0
-32 -107 0
-32 -110 0
-35 -11 0
-35 -14 0
-35 -20 0
-35 -41 0
-35 -53 0
-35 -59 0
-35 -62 0
-35 -71 0
-35 -74 0
-35 -89 0
-35 -98 0
-35 -107 0
-35 -113 0
-38 -8 0
-38 -11 0
-38 -23 0
-38 -32 0
-38 -47 0
-38 -59 0
-38 -65 0
-38 -77 0
-38 -83 0
-38 -86 0
-38 -92 0
-38 -95 0
-38 -113 0
-38 -116 0
-41 -2 0
-41 -5 0
-41 -14 0
-41 -29 0
-41 -32 0
-41 -35 0
-41 -53 0
-41 -62 0
-41 -65 0
-41 -83 0
-41 -89 0
-41 -104 0
-41 -116 0
-44 -5 0
-44 -8 0
-44 -17 0
-44 -26 0
-44 -59 0
-44 -62 0
-44 -65 0
-44 -74 0
-44 -77 0
-44 -101 0
-44 -104 0
-44 -107 0
-44 -110 0
-44 -119 0
-47 -2 0
-47 -17 0
-47 -20 0
-47 -26 0
-47 -29 0
-47 -38 0
-47 -53 0
-47 -56 0
-47 -59 0
-47 -65 0
-47 -83 0
-47 -86 0
-47 -101 0
-50 -8 0
-50 -11 0
-50 -23 0
-50 -29 0
-50 -56 0
-50 -62 0
-50 -68 0
-50 -83 0
-50 -92 0
-50 -95 0
-50 -104 0
-50 -110 0
-53 -5 0
-53 -8 0
-53 -20 0
-53 -32 0
-53 -35 0
-53 -41 0
-53 -47 0
-53 -59 0
-53 -71 0
-53 -80 0
-53 -83 0
-53 -113 0
-53 -116 0
-53 -119 0
-56 -2 0
-56 -5 0
-56 -8 0
-56 -11 0
-56 -14 0
-56 -23 0
-56 -47 0
-56 -50 0
-56 -65 0
-56 -86 0
-56 -89 0
-56 -107 0
-56 -116 0
-59 -2 0
-59 -5 0
-59 -8 0
-59 -20 0
-59 -26 0
-59 -35 0
-59 -38 0
-59 -44 0
-59 -47 0
-59 -53 0
-59 -77 0
-59 -80 0
-59 -89 0
-59 -107 0
-59 -110 0
-62 -2 0
-62 -5 0
-62 -17 0
-62 -35 0
-62 -41 0
-62 -44 0
-62 -50 0
-62 -65 0
-62 -77 0
-62 -92 0
-62 -95 0
-62 -104 0
-65 -8 0
-65 -17 0
-65 -38 0
-65 -41 0
-65 -44 0
-65 -47 0
-65 -56 0
-65 -62 0
-65 -68 0
-65 -74 0
-65 -83 0
-65 -92 0
-65 -104 0
-68 -11 0
-68 -50 0
-68 -65 0
-68 -77 0
-68 -80 0
-68 -83 0
-68 -86 0
-68 -92 0
-68 -101 0
-68 -107 0
-68 -119 0
-71 -8 0
-71 -17 0
-71 -20 0
-71 -23 0
-71 -35 0
-71 -53 0
-71 -77 0
-71 -83 0
-71 -95 0
-71 -101 0
-71 -107 0
-74 -8 0
-74 -14 0
-74 -29 0
-74 -32 0
-74 -35 0
-74 -44 0
-74 -65 0
-74 -77 0
-74 -80 0
-74 -89 0
-74 -92 0
-74 -116 0
-77 -17 0
-77 -26 0
-77 -38 0
-77 -44 0
-77 -59 0
-77 -62 0
-77 -68 0
-77 -71 0
-77 -74 0
-77 -80 0
-77 -89 0
-77 -101 0
-77 -119 0
-80 -5 0
-80 -11 0
-80 -26 0
-80 -32 0
-80 -53 0
-80 -59 0
-80 -68 0
-80 -74 0
-80 -77 0
-80 -95 0
-80 -98 0
-80 -104 0
-80 -113 0
-80 -119 0
-83 -5 0
-83 -8 0
-83 -14 0
-83 -23 0
-83 -38 0
-83 -41 0
-83 -47 0
-83 -50 0
-83 -53 0
-83 -65 0
-83 -68 0
-83 -71 0
-86 -2 0
-86 -5 0
-86 -14 0
-86 -20 0
-86 -23 0
-86 -32 0
-86 -38 0
-86 -47 0
-86 -56 0
-86 -68 0
-89 -2 0
-89 -17 0
-89 -20 0
-89 -23 0
-89 -29 0
-89 -32 0
-89 -35 0
-89 -41 0
-89 -56 0
-89 -59 0
-89 -74 0
-89 -77 0
-89 -92 0
-89 -101 0
-89 -110 0
-92 -32 0
-92 -38 0
-92 -50 0
-92 -62 0
-92 -65 0
-92 -68 0
-92 -74 0
-92 -89 0
-92 -101 0
-92 -116 0
-95 -14 0
-95 -23 0
-95 -38 0
-95 -50 0
-95 -62 0
-95 -71 0
-95 -80 0
-95 -104 0
-95 -107 0
-95 -110 0
-98 -2 0
-98 -17 0
-98 -35 0
-98 -80 0
-98 -101 0
-98 -104 0
-98 -107 0
-98 -113 0
-98 -116 0
-98 -119 0
-101 -14 0
-101 -20 0
-101 -26 0
-101 -44 0
-101 -47 0
-101 -68 0
-101 -71 0
-101 -77 0
-101 -89 0
-101 -92 0
-101 -98 0
-101 -107 0
-101 -116 0
-104 -41 0
-104 -44 0
-104 -50 0
-104 -62 0
-104 -65 0
-104 -80 0
-104 -95 0
-104 -98 0
-104 -110 0
-104 -113 0
-104 -116 0
-107 -5 0
-107 -14 0
-107 -32 0
-107 -35 0
-107 -44 0
-107 -56 0
-107 -59 0
-107 -68 0
-107 -71 0
-107 -95 0
-107 -98 0
-107 -101 0
-110 -23 0
-110 -29 0
-110 -32 0
-110 -44 0
-110 -50 0
-110 -59 0
-110 -89 0
-110 -95 0
-110 -104 0
-110 -113 0
-110 -116 0
-113 -2 0
-113 -14 0
-113 -23 0
-113 -29 0
-113 -35 0
-113 -38 0
-113 -53 0
-113 -80 0
-113 -98 0
-113 -104 0
-113 -110 0
-116 -23 0
-116 -29 0
-116 -38 0
-116 -41 0
-116 -53 0
-116 -56 0
-116 -74 0
-116 -92 0
-116 -98 0
-116 -101 0
-116 -104 0
-116 -110 0
-119 -2 0
-119 -8 0
-119 -11 0
-119 -29 0
-119 -44 0
-119 -53 0
-119 -68 0
-119 -77 0
-119 -80 0
-119 -98 0
-3 -9 0
-3 -21 0
-3 -27 0
-3 -42 0
-3 -48 0
-3 -57 0
-3 -60 0
-3 -63 0
-3 -87 0
-3 -90 0
-3 -99 0
-3 -114 0
-3 -120 0
-6 -24 0
-6 -27 0
-6 -42 0
-6 -45 0
-6 -54 0
-6 -57 0
-6 -60 0
-6 -63 0
-6 -81 0
-6 -84 0
-6 -87 0
-6 -108 0
-9 -3 0
-9 -24 0
-9 -33 0
-9 -39 0
-9 -45 0
-9 -51 0
-9 -54 0
-9 -57 0
-9 -60 0
-9 -66 0
-9 -72 0
-9 -75 0
-9 -84 0
-9 -120 0
-12 -15 0
-12 -21 0
-12 -27 0
-12 -33 0
-12 -36 0
-12 -39 0
-12 -51 0
-12 -57 0
-12 -69 0
-12 -81 0
-12 -120 0
-15 -12 0
-15 -18 0
-15 -21 0
-15 -36 0
-15 -42 0
-15 -57 0
-15 -75 0
-15 -84 0
-15 -87 0
-15 -96 0
-15 -102 0
-15 -108 0
-15 -114 0
-18 -15 0
-18 -27 0
-18 -30 0
-18 -45 0
-18 -48 0
-18 -63 0
-18 -66 0
-18 -72 0
-18 -78 0
-18 -90 0
-18 -99 0
-21 -3 0
-21 -12 0
-21 -15 0
-21 -27 0
-21 -36 0
-21 -48 0
-21 -54 0
-21 -60 0
-21 -72 0
-21 -87 0
-21 -90 0
-21 -102 0
-24 -6 0
-24 -9 0
-24 -30 0
-24 -39 0
-24 -51 0
-24 -57 0
-24 -72 0
-24 -84 0
-24 -87 0
-24 -90 0
-24 -96 0
-24 -111 0
-24 -114 0
-24 -117 0
-27 -3 0
-27 -6 0
-27 -12 0
-27 -18 0
-27 -21 0
-27 -33 0
-27 -45 0
-27 -48 0
-27 -60 0
-27 -78 0
-27 -81 0
-27 -102 0
-30 -18 0
-30 -24 0
-30 -42 0
-30 -48 0
-30 -51 0
-30 -75 0
-30 -90 0
-30 -111 0
-30 -114 0
-30 -117 0
-30 -120 0
-33 -9 0
-33 -12 0
-33 -27 0
-33 -39 0
-33 -42 0
-33 -54 0
-33 -75 0
-33 -81 0
-33 -87 0
-33 -90 0
-33 -93 0
-33 -108 0
-33 -111 0
-36 -12 0
-36 -15 0
-36 -21 0
-36 -42 0
-36 -54 0
-36 -60 0
-36 -63 0
-36 -72 0
-36 -75 0
-36 -90 0
-36 -99 0
-36 -108 0
-36 -114 0
-39 -9 0
-39 -12 0
-39 -24 0
-39 -33 0
-39 -48 0
-39 -60 0
-39 -66 0
-39 -78 0
-39 -84 0
-39 -87 0
-39 -93 0
-39 -96 0
-39 -114 0
-39 -117 0
-42 -3 0
-42 -6 0
-42 -15 0
-42 -30 0
-42 -33 0
-42 -36 0
-42 -54 0
-42 -63 0
-42 -66 0
-42 -84 0
-42 -90 0
-42 -105 0
-42 -117 0
-45 -6 0
-45 -9 0
-45 -18 0
-45 -27 0
-45 -60 0
-45 -63 0
-45 -66 0
-45 -75 0
-45 -78 0
-45 -102 0
-45 -105 0
-45 -108 0
-45 -111 0
-45 -120 0
-48 -3 0
-48 -18 0
-48 -21 0
-48 -27 0
-48 -30 0
-48 -39 0
-48 -54 0
-48 -57 0
-48 -60 0
-48 -66 0
-48 -84 0
-48 -87 0
-48 -102 0
-51 -9 0
-51 -12 0
-51 -24 0
-51 -30 0
-51 -57 0
-51 -63 0
-51 -69 0
-51 -84 0
-51 -93 0
-51 -96 0
-51 -105 0
-51 -111 0
-54 -6 0
-54 -9 0
-54 -21 0
-54 -33 0
-54 -36 0
-54 -42 0
-54 -48 0
-54 -60 0
-54 -72 0
-54 -81 0
-54 -84 0
-54 -114 0
-54 -117 0
-54 -120 0
-57 -3 0
-57 -6 0
-57 -9 0
-57 -12 0
-57 -15 0
-57 -24 0
-57 -48 0
-57 -51 0
-57 -66 0
-57 -87 0
-57 -90 0
-57 -108 0
-57 -117 0
-60 -3 0
-60 -6 0
-60 -9 0
-60 -21 0
-60 -27 0
-60 -36 0
-60 -39 0
-60 -45 0
-60 -48 0
-60 -54 0
-60 -78 0
-60 -81 0
-60 -90 0
-60 -108 0
-60 -111 0
-63 -3 0
-63 -6 0
-63 -18 0
-63 -36 0
-63 -42 0
-63 -45 0
-63 -51 0
-63 -66 0
-63 -78 0
-63 -93 0
-63 -96 0
-63 -105 0
-66 -9 0
-66 -18 0
-66 -39 0
-66 -42 0
-66 -45 0
-66 -48 0
-66 -57 0
-66 -63 0
-66 -69 0
-66 -75 0
-66 -84 0
-66 -93 0
-66 -105 0
-69 -12 0
-69 -51 0
-69 -66 0
-69 -78 0
-69 -81 0
-69 -84 0
-69 -87 0
-69 -93 0
-69 -102 0
-69 -108 0
-69 -120 0
-72 -9 0
-72 -18 0
-72 -21 0
-72 -24 0
-72 -36 0
-72 -54 0
-72 -78 0
-72 -84 0
-72 -96 0
-72 -102 0
-72 -108 0
-75 -9 0
-75 -15 0
-75 -30 0
-75 -33 0
-75 -36 0
-75 -45 0
-75 -66 0
-75 -78 0
-75 -81 0
-75 -90 0
-75 -93 0
-75 -117 0
-78 -18 0
-78 -27 0
-78 -39 0
-78 -45 0
-78 -60 0
-78 -63 0
-78 -69 0
-78 -72 0
-78 -75 0
-78 -81 0
-78 -90 0
-78 -102 0
-78 -120 0
-81 -6 0
-81 -12 0
-81 -27 0
-81 -33 0
-81 -54 0
-81 -60 0
-81 -69 0
-81 -75 0
-81 -78 0
-81 -96 0
-81 -99 0
-81 -105 0
-81 -114 0
-81 -120 0
-84 -6 0
-84 -9 0
-84 -15 0
-84 -24 0
-84 -39 0
-84 -42 0
-84 -48 0
-84 -51 0
-84 -54 0
-84 -66 0
-84 -69 0
-84 -72 0
-87 -3 0
-87 -6 0
-87 -15 0
-87 -21 0
-87 -24 0
-87 -33 0
-87 -39 0
-87 -48 0
-87 -57 0
-87 -69 0
-90 -3 0
-90 -18 0
-90 -21 0
-90 -24 0
-90 -30 0
-90 -33 0
-90 -36 0
-90 -42 0
-90 -57 0
-90 -60 0
-90 -75 0
-90 -78 0
-90 -93 0
-90 -102 0
-90 -111 0
-93 -33 0
-93 -39 0
-93 -51 0
-93 -63 0
-93 -66 0
-93 -69 0
-93 -75 0
-93 -90 0
-93 -102 0
-93 -117 0
-96 -15 0
-96 -24 0
-96 -39 0
-96 -51 0
-96 -63 0
-96 -72 0
-96 -81 0
-96 -105 0
-96 -108 0
-96 -111 0
-99 -3 0
-99 -18 0
-99 -36 0
-99 -81 0
-99 -102 0
-99 -105 0
-99 -108 0
-99 -114 0
-99 -117 0
-99 -120 0
-102 -15 0
-102 -21 0
-102 -27 0
-102 -45 0
-102 -48 0
-102 -69 0
-102 -72 0
-102 -78 0
-102 -90 0
-102 -93 0
-102 -99 0
-102 -108 0
-102 -117 0
-105 -42 0
-105 -45 0
-105 -51 0
-105 -63 0
-105 -66 0
-105 -81 0
-105 -96 0
-105 -99 0
-105 -111 0
-105 -114 0
-105 -117 0
-108 -6 0
-108 -15 0
-108 -33 0
-108 -36 0
-108 -45 0
-108 -57 0
-108 -60 0
-108 -69 0
-108 -72 0
-108 -96 0
-108 -99 0
-108 -102 0
-111 -24 0
-111 -30 0
-111 -33 0
-111 -45 0
-111 -51 0
-111 -60 0
-111 -90 0
-111 -96 0
-111 -105 0
-111 -114 0
-111 -117 0
-114 -3 0
-114 -15 0
-114 -24 0
-114 -30 0
-114 -36 0
-114 -39 0
-114 -54 0
-114 -81 0
-114 -99 0
-114 -105 0
-114 -111 0
-117 -24 0
-117 -30 0
-117 -39 0
-117 -42 0
-117 -54 0
-117 -57 0
-117 -75 0
-117 -93 0
-117 -99 0
-117 -102 0
-117 -105 0
-117 -111 0
-120 -3 0
-120 -9 0
-120 -12 0
-120 -30 0
-120 -45 0
-120 -54 0
-120 -69 0
-120 -78 0
-120 -81 0
-120 -99 0
